
;this file is automatically generated: Wed Oct 21 15:12:54 CST 2020

;declarations generated

(declare-fun Gender ( Int) Int)
(declare-fun rel_29e9ebe2_d098_4bdc_ab60_338a4132052a_study ( Int Int) Bool)
(declare-fun oclExcludes ( Int Int) Bool)
(declare-fun Cardinality ( Int) Int)
(declare-fun student_year ( Int) Int)
(declare-fun type_086092d9_b742_4b19_a00e_34650516d27b_Module ( Int) Bool)
(declare-fun type_086092d9_b742_4b19_a00e_34650516d27b_Person ( Int) Bool)
(declare-fun type_086092d9_b742_4b19_a00e_34650516d27b_Student ( Int) Bool)
(declare-fun oclSelect ( Int Bool) Int)
(declare-fun kff4539b7_0bb7_4d11_9f39_412ffdb04fdb () Int)
(declare-fun module_year ( Int) Int)
(declare-fun k6338e7f7_fcee_430d_b0a6_00643ef43c62 () Int)
(declare-fun container_ ( Int) Int)
(declare-fun obj_c1c75b5e_27be_40a6_a51a_ad81ec9f7eca ( Int) Int)
(declare-fun oclIncludes ( Int Int) Bool)
(declare-fun ObjAt ( Int Int) Int)

;formula(s) generated
(assert (forall ((x Int)(y Int)) (=> (and ( rel_29e9ebe2_d098_4bdc_ab60_338a4132052a_study ( obj_c1c75b5e_27be_40a6_a51a_ad81ec9f7eca x )   ( obj_c1c75b5e_27be_40a6_a51a_ad81ec9f7eca y )  )  (and (and ( type_086092d9_b742_4b19_a00e_34650516d27b_Student x )  ( type_086092d9_b742_4b19_a00e_34650516d27b_Person x ) ) ( type_086092d9_b742_4b19_a00e_34650516d27b_Module y ) )) (or (or (or (= (* ( Cardinality ( container_ x )  )  0) (* ( Cardinality ( container_ y )  )  1)) (and (= (* ( Cardinality ( container_ y )  )  1) (* ( Cardinality ( container_ x )  )  kff4539b7_0bb7_4d11_9f39_412ffdb04fdb)) (>= kff4539b7_0bb7_4d11_9f39_412ffdb04fdb 0))) (= (* ( Cardinality ( container_ x )  )  0) (* ( Cardinality ( container_ y )  )  1))) (and (= (* ( Cardinality ( container_ y )  )  1) (* ( Cardinality ( container_ x )  )  k6338e7f7_fcee_430d_b0a6_00643ef43c62)) (>= k6338e7f7_fcee_430d_b0a6_00643ef43c62 0))))))
(assert (! (and (forall ((v Int)) (=> (and ( type_086092d9_b742_4b19_a00e_34650516d27b_Student v )  ( type_086092d9_b742_4b19_a00e_34650516d27b_Person v ) ) (>= ( student_year ( obj_c1c75b5e_27be_40a6_a51a_ad81ec9f7eca v )  )  1))) (forall ((v Int)) (=> (and ( type_086092d9_b742_4b19_a00e_34650516d27b_Student v )  ( type_086092d9_b742_4b19_a00e_34650516d27b_Person v ) ) (<= ( student_year ( obj_c1c75b5e_27be_40a6_a51a_ad81ec9f7eca v )  )  6)))):named l0))
(assert (! (and (exists ((s Int)) (and (and ( type_086092d9_b742_4b19_a00e_34650516d27b_Student s )  ( type_086092d9_b742_4b19_a00e_34650516d27b_Person s ) ) (= ( student_year ( obj_c1c75b5e_27be_40a6_a51a_ad81ec9f7eca s )  )  6))) (exists ((s Int)) (and (and ( type_086092d9_b742_4b19_a00e_34650516d27b_Student s )  ( type_086092d9_b742_4b19_a00e_34650516d27b_Person s ) ) (< ( student_year ( obj_c1c75b5e_27be_40a6_a51a_ad81ec9f7eca s )  )  6)))):named l1))
(assert (! (forall ((s1 Int)) (=> (and ( type_086092d9_b742_4b19_a00e_34650516d27b_Student s1 )  ( type_086092d9_b742_4b19_a00e_34650516d27b_Person s1 ) ) (forall ((m1 Int)) (=> (and ( type_086092d9_b742_4b19_a00e_34650516d27b_Module m1 )  ( rel_29e9ebe2_d098_4bdc_ab60_338a4132052a_study ( obj_c1c75b5e_27be_40a6_a51a_ad81ec9f7eca s1 )   ( obj_c1c75b5e_27be_40a6_a51a_ad81ec9f7eca m1 )  ) ) (= ( student_year ( obj_c1c75b5e_27be_40a6_a51a_ad81ec9f7eca s1 )  )  ( module_year ( obj_c1c75b5e_27be_40a6_a51a_ad81ec9f7eca m1 )  ) ))))):named l2))
(assert (! (and (forall ((v Int)) (=> ( type_086092d9_b742_4b19_a00e_34650516d27b_Module v )  (>= ( module_year ( obj_c1c75b5e_27be_40a6_a51a_ad81ec9f7eca v )  )  1))) (forall ((v Int)) (=> ( type_086092d9_b742_4b19_a00e_34650516d27b_Module v )  (<= ( module_year ( obj_c1c75b5e_27be_40a6_a51a_ad81ec9f7eca v )  )  5)))):named l3))
(assert (! (forall ((s Int)) (=> (and ( type_086092d9_b742_4b19_a00e_34650516d27b_Student s )  ( type_086092d9_b742_4b19_a00e_34650516d27b_Person s ) ) (exists ((v Int)) (and ( type_086092d9_b742_4b19_a00e_34650516d27b_Module v )  ( rel_29e9ebe2_d098_4bdc_ab60_338a4132052a_study ( obj_c1c75b5e_27be_40a6_a51a_ad81ec9f7eca s )   ( obj_c1c75b5e_27be_40a6_a51a_ad81ec9f7eca v )  ) )))):named l4))
(assert (exists ((o Int)) (and ( type_086092d9_b742_4b19_a00e_34650516d27b_Student ( obj_c1c75b5e_27be_40a6_a51a_ad81ec9f7eca o )  )  ( type_086092d9_b742_4b19_a00e_34650516d27b_Person ( obj_c1c75b5e_27be_40a6_a51a_ad81ec9f7eca o )  ) )))
(assert (exists ((o Int)) (and (and ( type_086092d9_b742_4b19_a00e_34650516d27b_Student ( obj_c1c75b5e_27be_40a6_a51a_ad81ec9f7eca o )  )  ( type_086092d9_b742_4b19_a00e_34650516d27b_Person ( obj_c1c75b5e_27be_40a6_a51a_ad81ec9f7eca o )  ) ) ( type_086092d9_b742_4b19_a00e_34650516d27b_Module ( obj_c1c75b5e_27be_40a6_a51a_ad81ec9f7eca o )  ) )))

 ;end of formula 